c Mesh Graph
c 16 Rows, 16 columns, capacities in range [0, 100]
p max 258 752
n 1 s
n 258 t
a 1 17 300
a 1 16 300
a 1 15 300
a 1 14 300
a 1 13 300
a 1 12 300
a 1 11 300
a 1 10 300
a 1 9 300
a 1 8 300
a 1 7 300
a 1 6 300
a 1 5 300
a 1 4 300
a 1 3 300
a 1 2 300
a 2 19 51
a 2 18 81
a 2 33 73
a 3 20 22
a 3 19 62
a 3 18 48
a 4 21 82
a 4 20 99
a 4 19 68
a 5 22 14
a 5 21 15
a 5 20 76
a 6 23 86
a 6 22 90
a 6 21 74
a 7 24 88
a 7 23 61
a 7 22 90
a 8 25 25
a 8 24 84
a 8 23 7
a 9 26 73
a 9 25 47
a 9 24 84
a 10 27 35
a 10 26 29
a 10 25 88
a 11 28 30
a 11 27 77
a 11 26 65
a 12 29 62
a 12 28 1
a 12 27 67
a 13 30 23
a 13 29 1
a 13 28 17
a 14 31 21
a 14 30 68
a 14 29 91
a 15 32 88
a 15 31 96
a 15 30 72
a 16 33 77
a 16 32 69
a 16 31 37
a 17 18 89
a 17 33 11
a 17 32 23
a 18 35 72
a 18 34 17
a 18 49 10
a 19 36 71
a 19 35 52
a 19 34 86
a 20 37 51
a 20 36 39
a 20 35 59
a 21 38 28
a 21 37 55
a 21 36 45
a 22 39 80
a 22 38 22
a 22 37 74
a 23 40 80
a 23 39 90
a 23 38 35
a 24 41 100
a 24 40 80
a 24 39 10
a 25 42 95
a 25 41 51
a 25 40 30
a 26 43 15
a 26 42 88
a 26 41 17
a 27 44 25
a 27 43 10
a 27 42 45
a 28 45 94
a 28 44 71
a 28 43 86
a 29 46 97
a 29 45 57
a 29 44 9
a 30 47 88
a 30 46 67
a 30 45 79
a 31 48 42
a 31 47 11
a 31 46 30
a 32 49 15
a 32 48 36
a 32 47 9
a 33 34 57
a 33 49 22
a 33 48 40
a 34 51 36
a 34 50 31
a 34 65 20
a 35 52 39
a 35 51 13
a 35 50 71
a 36 53 78
a 36 52 81
a 36 51 65
a 37 54 39
a 37 53 26
a 37 52 31
a 38 55 9
a 38 54 11
a 38 53 8
a 39 56 17
a 39 55 71
a 39 54 1
a 40 57 83
a 40 56 50
a 40 55 49
a 41 58 45
a 41 57 31
a 41 56 36
a 42 59 80
a 42 58 91
a 42 57 30
a 43 60 54
a 43 59 30
a 43 58 44
a 44 61 36
a 44 60 1
a 44 59 52
a 45 62 48
a 45 61 71
a 45 60 88
a 46 63 29
a 46 62 35
a 46 61 78
a 47 64 6
a 47 63 18
a 47 62 55
a 48 65 68
a 48 64 25
a 48 63 93
a 49 50 38
a 49 65 77
a 49 64 53
a 50 67 87
a 50 66 25
a 50 81 70
a 51 68 69
a 51 67 61
a 51 66 4
a 52 69 59
a 52 68 90
a 52 67 49
a 53 70 89
a 53 69 85
a 53 68 80
a 54 71 89
a 54 70 37
a 54 69 33
a 55 72 60
a 55 71 76
a 55 70 69
a 56 73 46
a 56 72 53
a 56 71 68
a 57 74 63
a 57 73 7
a 57 72 96
a 58 75 87
a 58 74 51
a 58 73 1
a 59 76 15
a 59 75 3
a 59 74 68
a 60 77 40
a 60 76 24
a 60 75 6
a 61 78 100
a 61 77 28
a 61 76 44
a 62 79 41
a 62 78 76
a 62 77 13
a 63 80 77
a 63 79 7
a 63 78 23
a 64 81 13
a 64 80 40
a 64 79 63
a 65 66 40
a 65 81 60
a 65 80 4
a 66 83 92
a 66 82 27
a 66 97 15
a 67 84 50
a 67 83 75
a 67 82 60
a 68 85 52
a 68 84 75
a 68 83 75
a 69 86 7
a 69 85 95
a 69 84 13
a 70 87 30
a 70 86 100
a 70 85 28
a 71 88 57
a 71 87 95
a 71 86 19
a 72 89 84
a 72 88 59
a 72 87 70
a 73 90 91
a 73 89 82
a 73 88 10
a 74 91 82
a 74 90 96
a 74 89 86
a 75 92 93
a 75 91 99
a 75 90 51
a 76 93 71
a 76 92 13
a 76 91 42
a 77 94 45
a 77 93 25
a 77 92 34
a 78 95 72
a 78 94 99
a 78 93 35
a 79 96 66
a 79 95 63
a 79 94 87
a 80 97 65
a 80 96 90
a 80 95 93
a 81 82 11
a 81 97 8
a 81 96 22
a 82 99 70
a 82 98 77
a 82 113 31
a 83 100 3
a 83 99 38
a 83 98 66
a 84 101 98
a 84 100 76
a 84 99 56
a 85 102 49
a 85 101 78
a 85 100 37
a 86 103 61
a 86 102 19
a 86 101 81
a 87 104 37
a 87 103 4
a 87 102 52
a 88 105 87
a 88 104 39
a 88 103 96
a 89 106 50
a 89 105 25
a 89 104 67
a 90 107 91
a 90 106 69
a 90 105 32
a 91 108 51
a 91 107 42
a 91 106 48
a 92 109 79
a 92 108 72
a 92 107 11
a 93 110 17
a 93 109 38
a 93 108 80
a 94 111 44
a 94 110 45
a 94 109 34
a 95 112 21
a 95 111 34
a 95 110 83
a 96 113 39
a 96 112 14
a 96 111 31
a 97 98 43
a 97 113 65
a 97 112 44
a 98 115 33
a 98 114 13
a 98 129 80
a 99 116 57
a 99 115 79
a 99 114 67
a 100 117 25
a 100 116 63
a 100 115 16
a 101 118 18
a 101 117 62
a 101 116 6
a 102 119 90
a 102 118 72
a 102 117 56
a 103 120 79
a 103 119 3
a 103 118 87
a 104 121 23
a 104 120 36
a 104 119 3
a 105 122 8
a 105 121 19
a 105 120 46
a 106 123 22
a 106 122 49
a 106 121 18
a 107 124 38
a 107 123 92
a 107 122 8
a 108 125 50
a 108 124 24
a 108 123 50
a 109 126 81
a 109 125 90
a 109 124 82
a 110 127 95
a 110 126 57
a 110 125 90
a 111 128 56
a 111 127 14
a 111 126 66
a 112 129 28
a 112 128 22
a 112 127 84
a 113 114 30
a 113 129 8
a 113 128 25
a 114 131 18
a 114 130 62
a 114 145 3
a 115 132 36
a 115 131 7
a 115 130 77
a 116 133 36
a 116 132 76
a 116 131 37
a 117 134 28
a 117 133 83
a 117 132 10
a 118 135 3
a 118 134 33
a 118 133 47
a 119 136 92
a 119 135 66
a 119 134 49
a 120 137 100
a 120 136 8
a 120 135 81
a 121 138 13
a 121 137 73
a 121 136 75
a 122 139 34
a 122 138 8
a 122 137 30
a 123 140 93
a 123 139 32
a 123 138 9
a 124 141 54
a 124 140 86
a 124 139 91
a 125 142 12
a 125 141 15
a 125 140 8
a 126 143 87
a 126 142 51
a 126 141 95
a 127 144 70
a 127 143 12
a 127 142 30
a 128 145 54
a 128 144 58
a 128 143 9
a 129 130 71
a 129 145 58
a 129 144 11
a 130 147 78
a 130 146 38
a 130 161 2
a 131 148 3
a 131 147 64
a 131 146 1
a 132 149 10
a 132 148 94
a 132 147 66
a 133 150 94
a 133 149 54
a 133 148 51
a 134 151 79
a 134 150 96
a 134 149 44
a 135 152 45
a 135 151 3
a 135 150 97
a 136 153 47
a 136 152 49
a 136 151 9
a 137 154 58
a 137 153 79
a 137 152 95
a 138 155 68
a 138 154 87
a 138 153 64
a 139 156 25
a 139 155 98
a 139 154 69
a 140 157 15
a 140 156 51
a 140 155 40
a 141 158 78
a 141 157 4
a 141 156 17
a 142 159 23
a 142 158 21
a 142 157 19
a 143 160 77
a 143 159 71
a 143 158 81
a 144 161 24
a 144 160 14
a 144 159 74
a 145 146 79
a 145 161 11
a 145 160 4
a 146 163 27
a 146 162 71
a 146 177 49
a 147 164 5
a 147 163 65
a 147 162 47
a 148 165 44
a 148 164 81
a 148 163 5
a 149 166 93
a 149 165 1
a 149 164 72
a 150 167 95
a 150 166 40
a 150 165 48
a 151 168 98
a 151 167 57
a 151 166 62
a 152 169 18
a 152 168 27
a 152 167 92
a 153 170 89
a 153 169 7
a 153 168 14
a 154 171 54
a 154 170 32
a 154 169 42
a 155 172 16
a 155 171 36
a 155 170 66
a 156 173 86
a 156 172 36
a 156 171 44
a 157 174 3
a 157 173 82
a 157 172 22
a 158 175 35
a 158 174 86
a 158 173 79
a 159 176 35
a 159 175 9
a 159 174 22
a 160 177 75
a 160 176 57
a 160 175 66
a 161 162 83
a 161 177 70
a 161 176 60
a 162 179 61
a 162 178 13
a 162 193 58
a 163 180 68
a 163 179 27
a 163 178 27
a 164 181 99
a 164 180 20
a 164 179 67
a 165 182 86
a 165 181 37
a 165 180 73
a 166 183 21
a 166 182 32
a 166 181 88
a 167 184 3
a 167 183 54
a 167 182 74
a 168 185 40
a 168 184 84
a 168 183 28
a 169 186 49
a 169 185 5
a 169 184 62
a 170 187 57
a 170 186 70
a 170 185 48
a 171 188 78
a 171 187 81
a 171 186 74
a 172 189 91
a 172 188 90
a 172 187 56
a 173 190 69
a 173 189 17
a 173 188 17
a 174 191 40
a 174 190 35
a 174 189 36
a 175 192 77
a 175 191 7
a 175 190 86
a 176 193 60
a 176 192 95
a 176 191 72
a 177 178 65
a 177 193 20
a 177 192 44
a 178 195 48
a 178 194 99
a 178 209 46
a 179 196 4
a 179 195 12
a 179 194 86
a 180 197 25
a 180 196 59
a 180 195 86
a 181 198 6
a 181 197 33
a 181 196 42
a 182 199 95
a 182 198 40
a 182 197 19
a 183 200 63
a 183 199 8
a 183 198 9
a 184 201 98
a 184 200 95
a 184 199 29
a 185 202 56
a 185 201 33
a 185 200 69
a 186 203 2
a 186 202 4
a 186 201 45
a 187 204 73
a 187 203 47
a 187 202 56
a 188 205 71
a 188 204 45
a 188 203 21
a 189 206 34
a 189 205 82
a 189 204 20
a 190 207 93
a 190 206 67
a 190 205 24
a 191 208 77
a 191 207 8
a 191 206 48
a 192 209 68
a 192 208 78
a 192 207 53
a 193 194 28
a 193 209 39
a 193 208 100
a 194 211 22
a 194 210 67
a 194 225 62
a 195 212 6
a 195 211 35
a 195 210 59
a 196 213 9
a 196 212 31
a 196 211 15
a 197 214 8
a 197 213 39
a 197 212 68
a 198 215 4
a 198 214 59
a 198 213 41
a 199 216 85
a 199 215 78
a 199 214 11
a 200 217 51
a 200 216 53
a 200 215 97
a 201 218 10
a 201 217 1
a 201 216 89
a 202 219 87
a 202 218 5
a 202 217 17
a 203 220 77
a 203 219 4
a 203 218 36
a 204 221 44
a 204 220 66
a 204 219 63
a 205 222 30
a 205 221 76
a 205 220 37
a 206 223 13
a 206 222 42
a 206 221 94
a 207 224 51
a 207 223 10
a 207 222 3
a 208 225 9
a 208 224 50
a 208 223 62
a 209 210 38
a 209 225 12
a 209 224 17
a 210 227 91
a 210 226 8
a 210 241 1
a 211 228 43
a 211 227 48
a 211 226 3
a 212 229 47
a 212 228 16
a 212 227 12
a 213 230 51
a 213 229 52
a 213 228 50
a 214 231 16
a 214 230 66
a 214 229 27
a 215 232 91
a 215 231 54
a 215 230 22
a 216 233 33
a 216 232 48
a 216 231 51
a 217 234 94
a 217 233 2
a 217 232 63
a 218 235 43
a 218 234 15
a 218 233 13
a 219 236 6
a 219 235 31
a 219 234 73
a 220 237 14
a 220 236 83
a 220 235 63
a 221 238 13
a 221 237 85
a 221 236 53
a 222 239 29
a 222 238 48
a 222 237 95
a 223 240 32
a 223 239 49
a 223 238 41
a 224 241 49
a 224 240 27
a 224 239 43
a 225 226 3
a 225 241 100
a 225 240 10
a 226 243 2
a 226 242 51
a 226 257 53
a 227 244 55
a 227 243 65
a 227 242 37
a 228 245 69
a 228 244 30
a 228 243 30
a 229 246 51
a 229 245 54
a 229 244 72
a 230 247 33
a 230 246 16
a 230 245 29
a 231 248 69
a 231 247 20
a 231 246 42
a 232 249 68
a 232 248 66
a 232 247 7
a 233 250 68
a 233 249 59
a 233 248 35
a 234 251 95
a 234 250 1
a 234 249 18
a 235 252 94
a 235 251 63
a 235 250 66
a 236 253 96
a 236 252 15
a 236 251 20
a 237 254 13
a 237 253 51
a 237 252 21
a 238 255 94
a 238 254 80
a 238 253 27
a 239 256 47
a 239 255 3
a 239 254 47
a 240 257 15
a 240 256 31
a 240 255 97
a 241 242 86
a 241 257 25
a 241 256 81
a 242 258 300
a 243 258 300
a 244 258 300
a 245 258 300
a 246 258 300
a 247 258 300
a 248 258 300
a 249 258 300
a 250 258 300
a 251 258 300
a 252 258 300
a 253 258 300
a 254 258 300
a 255 258 300
a 256 258 300
a 257 258 300
